[[18, 50, 32, 44, 3, 51, 16, 24, 49, 63, 23, 56, 43, 41, 42, 64, 22, 62, 73, 33, 6, 68, 2, 30, 74, 28, 61, 21, 47, 69, 36, 71], [60, 70, 20, 37, 15, 57, 5, 48, 29, 45, 4, 75, 76, 26, 67, 34, 46, 52, 27, 13, 54, 19, 8, 35, 7, 53, 14, 59, 11, 66, 65, 38, 10, 31, 58, 72, 39, 12, 17, 40, 9, 25, 55]]